(set-info :source |printed by MathSAT|)
(declare-fun call__DRAGON_.g05 () Bool)
(declare-fun call__DRAGON_.dirty () Int)
(declare-fun call__DRAGON_.ite49 () Int)
(declare-fun call__DRAGON_.ite10 () Int)
(declare-fun call__DRAGON_.g08 () Bool)
(declare-fun call__DRAGON_.ite21 () Int)
(declare-fun call__DRAGON_.ite47 () Int)
(declare-fun call__DRAGON_.ite43 () Int)
(declare-fun call__DRAGON_.ite52 () Int)
(declare-fun call__DRAGON_.flby5 () Int)
(declare-fun call__DRAGON_.ite54 () Int)
(declare-fun call__DRAGON_.ite25 () Int)
(declare-fun call__DRAGON_.ite53 () Int)
(declare-fun call__DRAGON_.g02 () Bool)
(declare-fun call__DRAGON_.ite36 () Int)
(declare-fun param_e12 () Bool)
(declare-fun call__DRAGON_.g06 () Bool)
(declare-fun call__DRAGON_.ite () Bool)
(declare-fun param_e02 () Bool)
(declare-fun erreur () Bool)
(declare-fun param_e01 () Bool)
(declare-fun call__DRAGON_.ite31 () Int)
(declare-fun call__DRAGON_.ite32 () Int)
(declare-fun call__DRAGON_.invalid () Int)
(declare-fun call__DRAGON_.ite51 () Int)
(declare-fun call__DRAGON_.shared_dirty () Int)
(declare-fun call__DRAGON_.ite20 () Int)
(declare-fun call__DRAGON_.ite9 () Int)
(declare-fun shared () Int)
(declare-fun param_e04 () Bool)
(declare-fun call__DRAGON_.ite39 () Int)
(declare-fun call__DRAGON_.ite13 () Int)
(declare-fun call__DRAGON_.ite58 () Int)
(declare-fun call__DRAGON_.ite14 () Int)
(declare-fun call__DRAGON_.flby2 () Int)
(declare-fun call__DRAGON_.ite57 () Int)
(declare-fun call__DRAGON_.ite3 () Int)
(declare-fun call__DRAGON_.flby6 () Int)
(declare-fun call__DRAGON_.ite56 () Int)
(declare-fun call__DRAGON_.ite19 () Int)
(declare-fun call__DRAGON_.ite5 () Int)
(declare-fun call__DRAGON_.ite7 () Int)
(declare-fun param_e05 () Bool)
(declare-fun call__DRAGON_.ite48 () Int)
(declare-fun param_init_invalid () Int)
(declare-fun call__DRAGON_.ite11 () Int)
(declare-fun call__DRAGON_.flby4 () Int)
(declare-fun call__DRAGON_.ite16 () Int)
(declare-fun call__DRAGON_.ite55 () Int)
(declare-fun call__DRAGON_.ite33 () Int)
(declare-fun param_e11 () Bool)
(declare-fun param_e08 () Bool)
(declare-fun invalid () Int)
(declare-fun call__DRAGON_.ite59 () Int)
(declare-fun call__DRAGON_.ite15 () Int)
(declare-fun flby () Bool)
(declare-fun call_excludes12.excludes () Bool)
(declare-fun call__DRAGON_.ite34 () Int)
(declare-fun call_Sofar.flby () Bool)
(declare-fun call__DRAGON_.ite17 () Int)
(declare-fun call__DRAGON_.flby3 () Int)
(declare-fun call__DRAGON_.ite28 () Int)
(declare-fun call__DRAGON_.ite6 () Int)
(declare-fun call__DRAGON_.ite41 () Int)
(declare-fun call__DRAGON_.ite40 () Int)
(declare-fun call__DRAGON_.g04 () Bool)
(declare-fun call__DRAGON_.mem_init () Int)
(declare-fun call__DRAGON_.ite46 () Int)
(declare-fun call__DRAGON_.ite27 () Int)
(declare-fun call__DRAGON_.ite8 () Int)
(declare-fun call__DRAGON_.ite45 () Int)
(declare-fun call__DRAGON_.exclusive () Int)
(declare-fun call__DRAGON_.ite37 () Int)
(declare-fun call__DRAGON_.ite38 () Int)
(declare-fun param_e09 () Bool)
(declare-fun call__DRAGON_.ite30 () Int)
(declare-fun call__DRAGON_.ite61 () Int)
(declare-fun dirty () Int)
(declare-fun exclusive () Int)
(declare-fun call__DRAGON_.ite35 () Int)
(declare-fun _OK_ () Bool)
(declare-fun call__DRAGON_.ite18 () Int)
(declare-fun call__DRAGON_.ite12 () Int)
(declare-fun call__DRAGON_.ite29 () Int)
(declare-fun call__DRAGON_.erreur () Bool)
(declare-fun call__DRAGON_.ite26 () Int)
(declare-fun call__DRAGON_.ite50 () Int)
(declare-fun call__DRAGON_.ite4 () Int)
(declare-fun call__DRAGON_.ite42 () Int)
(declare-fun call__DRAGON_.ite23 () Int)
(declare-fun call__DRAGON_.ite2 () Int)
(declare-fun param_e10 () Bool)
(declare-fun param_e06 () Bool)
(declare-fun shared_dirty () Int)
(declare-fun call__DRAGON_.shared () Int)
(declare-fun call_Sofar.Sofar () Bool)
(declare-fun call__DRAGON_.ite24 () Int)
(declare-fun param_e03 () Bool)
(declare-fun call__DRAGON_.ite22 () Int)
(declare-fun call__DRAGON_.ite44 () Int)
(declare-fun env () Bool)
(declare-fun param_e07 () Bool)
(declare-fun call__DRAGON_.flby () Int)
(declare-fun call__DRAGON_.ite60 () Int)
(define-fun .def_1746 () Bool (= call_Sofar.flby call_Sofar.Sofar))
(define-fun .def_1555 () Bool (not param_e02))
(define-fun .def_1536 () Bool (not param_e01))
(define-fun .def_1644 () Bool (and .def_1536 .def_1555))
(define-fun .def_1595 () Bool (not param_e03))
(define-fun .def_1645 () Bool (and .def_1595 .def_1644))
(define-fun .def_1611 () Bool (not param_e04))
(define-fun .def_1646 () Bool (and .def_1611 .def_1645))
(define-fun .def_1405 () Bool (not param_e05))
(define-fun .def_1647 () Bool (and .def_1405 .def_1646))
(define-fun .def_1389 () Bool (not param_e06))
(define-fun .def_1648 () Bool (and .def_1389 .def_1647))
(define-fun .def_1425 () Bool (not param_e07))
(define-fun .def_1649 () Bool (and .def_1425 .def_1648))
(define-fun .def_1443 () Bool (not param_e08))
(define-fun .def_1650 () Bool (and .def_1443 .def_1649))
(define-fun .def_1283 () Bool (not param_e09))
(define-fun .def_1651 () Bool (and .def_1283 .def_1650))
(define-fun .def_1289 () Bool (not param_e10))
(define-fun .def_1652 () Bool (and .def_1289 .def_1651))
(define-fun .def_1298 () Bool (not param_e11))
(define-fun .def_1653 () Bool (and .def_1298 .def_1652))
(define-fun .def_1305 () Bool (not param_e12))
(define-fun .def_1731 () Bool (and .def_1305 .def_1653))
(define-fun .def_1720 () Bool (and param_e01 .def_1555))
(define-fun .def_1721 () Bool (and .def_1595 .def_1720))
(define-fun .def_1722 () Bool (and .def_1611 .def_1721))
(define-fun .def_1723 () Bool (and .def_1405 .def_1722))
(define-fun .def_1724 () Bool (and .def_1389 .def_1723))
(define-fun .def_1725 () Bool (and .def_1425 .def_1724))
(define-fun .def_1726 () Bool (and .def_1443 .def_1725))
(define-fun .def_1727 () Bool (and .def_1283 .def_1726))
(define-fun .def_1728 () Bool (and .def_1289 .def_1727))
(define-fun .def_1729 () Bool (and .def_1298 .def_1728))
(define-fun .def_1730 () Bool (and .def_1305 .def_1729))
(define-fun .def_1732 () Bool (or .def_1730 .def_1731))
(define-fun .def_1709 () Bool (and .def_1536 param_e02))
(define-fun .def_1710 () Bool (and .def_1595 .def_1709))
(define-fun .def_1711 () Bool (and .def_1611 .def_1710))
(define-fun .def_1712 () Bool (and .def_1405 .def_1711))
(define-fun .def_1713 () Bool (and .def_1389 .def_1712))
(define-fun .def_1714 () Bool (and .def_1425 .def_1713))
(define-fun .def_1715 () Bool (and .def_1443 .def_1714))
(define-fun .def_1716 () Bool (and .def_1283 .def_1715))
(define-fun .def_1717 () Bool (and .def_1289 .def_1716))
(define-fun .def_1718 () Bool (and .def_1298 .def_1717))
(define-fun .def_1719 () Bool (and .def_1305 .def_1718))
(define-fun .def_1733 () Bool (or .def_1719 .def_1732))
(define-fun .def_1699 () Bool (and param_e03 .def_1644))
(define-fun .def_1700 () Bool (and .def_1611 .def_1699))
(define-fun .def_1701 () Bool (and .def_1405 .def_1700))
(define-fun .def_1702 () Bool (and .def_1389 .def_1701))
(define-fun .def_1703 () Bool (and .def_1425 .def_1702))
(define-fun .def_1704 () Bool (and .def_1443 .def_1703))
(define-fun .def_1705 () Bool (and .def_1283 .def_1704))
(define-fun .def_1706 () Bool (and .def_1289 .def_1705))
(define-fun .def_1707 () Bool (and .def_1298 .def_1706))
(define-fun .def_1708 () Bool (and .def_1305 .def_1707))
(define-fun .def_1734 () Bool (or .def_1708 .def_1733))
(define-fun .def_1690 () Bool (and param_e04 .def_1645))
(define-fun .def_1691 () Bool (and .def_1405 .def_1690))
(define-fun .def_1692 () Bool (and .def_1389 .def_1691))
(define-fun .def_1693 () Bool (and .def_1425 .def_1692))
(define-fun .def_1694 () Bool (and .def_1443 .def_1693))
(define-fun .def_1695 () Bool (and .def_1283 .def_1694))
(define-fun .def_1696 () Bool (and .def_1289 .def_1695))
(define-fun .def_1697 () Bool (and .def_1298 .def_1696))
(define-fun .def_1698 () Bool (and .def_1305 .def_1697))
(define-fun .def_1735 () Bool (or .def_1698 .def_1734))
(define-fun .def_1682 () Bool (and param_e05 .def_1646))
(define-fun .def_1683 () Bool (and .def_1389 .def_1682))
(define-fun .def_1684 () Bool (and .def_1425 .def_1683))
(define-fun .def_1685 () Bool (and .def_1443 .def_1684))
(define-fun .def_1686 () Bool (and .def_1283 .def_1685))
(define-fun .def_1687 () Bool (and .def_1289 .def_1686))
(define-fun .def_1688 () Bool (and .def_1298 .def_1687))
(define-fun .def_1689 () Bool (and .def_1305 .def_1688))
(define-fun .def_1736 () Bool (or .def_1689 .def_1735))
(define-fun .def_1675 () Bool (and param_e06 .def_1647))
(define-fun .def_1676 () Bool (and .def_1425 .def_1675))
(define-fun .def_1677 () Bool (and .def_1443 .def_1676))
(define-fun .def_1678 () Bool (and .def_1283 .def_1677))
(define-fun .def_1679 () Bool (and .def_1289 .def_1678))
(define-fun .def_1680 () Bool (and .def_1298 .def_1679))
(define-fun .def_1681 () Bool (and .def_1305 .def_1680))
(define-fun .def_1737 () Bool (or .def_1681 .def_1736))
(define-fun .def_1669 () Bool (and param_e07 .def_1648))
(define-fun .def_1670 () Bool (and .def_1443 .def_1669))
(define-fun .def_1671 () Bool (and .def_1283 .def_1670))
(define-fun .def_1672 () Bool (and .def_1289 .def_1671))
(define-fun .def_1673 () Bool (and .def_1298 .def_1672))
(define-fun .def_1674 () Bool (and .def_1305 .def_1673))
(define-fun .def_1738 () Bool (or .def_1674 .def_1737))
(define-fun .def_1664 () Bool (and param_e08 .def_1649))
(define-fun .def_1665 () Bool (and .def_1283 .def_1664))
(define-fun .def_1666 () Bool (and .def_1289 .def_1665))
(define-fun .def_1667 () Bool (and .def_1298 .def_1666))
(define-fun .def_1668 () Bool (and .def_1305 .def_1667))
(define-fun .def_1739 () Bool (or .def_1668 .def_1738))
(define-fun .def_1660 () Bool (and param_e09 .def_1650))
(define-fun .def_1661 () Bool (and .def_1289 .def_1660))
(define-fun .def_1662 () Bool (and .def_1298 .def_1661))
(define-fun .def_1663 () Bool (and .def_1305 .def_1662))
(define-fun .def_1740 () Bool (or .def_1663 .def_1739))
(define-fun .def_1657 () Bool (and param_e10 .def_1651))
(define-fun .def_1658 () Bool (and .def_1298 .def_1657))
(define-fun .def_1659 () Bool (and .def_1305 .def_1658))
(define-fun .def_1741 () Bool (or .def_1659 .def_1740))
(define-fun .def_1655 () Bool (and param_e11 .def_1652))
(define-fun .def_1656 () Bool (and .def_1305 .def_1655))
(define-fun .def_1742 () Bool (or .def_1656 .def_1741))
(define-fun .def_1654 () Bool (and param_e12 .def_1653))
(define-fun .def_1743 () Bool (or .def_1654 .def_1742))
(define-fun .def_1744 () Bool (= call_excludes12.excludes .def_1743))
(define-fun .def_1642 () Bool (= call__DRAGON_.mem_init call__DRAGON_.flby))
(define-fun .def_1640 () Bool (= call__DRAGON_.erreur call__DRAGON_.ite))
(define-fun .def_1638 () Bool (= call__DRAGON_.flby6 call__DRAGON_.invalid))
(define-fun .def_1636 () Bool (= call__DRAGON_.flby5 call__DRAGON_.dirty))
(define-fun .def_1634 () Bool (= call__DRAGON_.flby4 call__DRAGON_.shared_dirty))
(define-fun .def_1632 () Bool (= call__DRAGON_.flby3 call__DRAGON_.shared))
(define-fun .def_1629 () Bool (= call__DRAGON_.flby2 call__DRAGON_.exclusive))
(define-fun .def_1624 () Bool (<= 2 call__DRAGON_.exclusive))
(define-fun .def_1626 () Bool (not .def_1624))
(define-fun .def_1627 () Bool (or call__DRAGON_.ite .def_1626))
(define-fun .def_1623 () Bool (not call__DRAGON_.ite))
(define-fun .def_1625 () Bool (or .def_1623 .def_1624))
(define-fun .def_1628 () Bool (and .def_1625 .def_1627))
(define-fun .def_1630 () Bool (and .def_1628 .def_1629))
(define-fun .def_1618 () Bool (= call__DRAGON_.ite42 call__DRAGON_.ite43))
(define-fun .def_1619 () Bool (or param_e04 .def_1618))
(define-fun .def_1615 () Bool (= call__DRAGON_.ite43 call__DRAGON_.ite34))
(define-fun .def_1616 () Bool (or .def_1611 .def_1615))
(define-fun .def_1610 () Bool (= call__DRAGON_.ite23 call__DRAGON_.ite30))
(define-fun .def_1612 () Bool (or .def_1610 .def_1611))
(define-fun .def_1607 () Bool (= call__DRAGON_.ite29 call__DRAGON_.ite30))
(define-fun .def_1609 () Bool (or .def_1607 param_e04))
(define-fun .def_1613 () Bool (and .def_1609 .def_1612))
(define-fun .def_1617 () Bool (and .def_1613 .def_1616))
(define-fun .def_1620 () Bool (and .def_1617 .def_1619))
(define-fun .def_1603 () Bool (= call__DRAGON_.ite44 call__DRAGON_.ite43))
(define-fun .def_1604 () Bool (or param_e03 .def_1603))
(define-fun .def_1599 () Bool (= call__DRAGON_.ite44 call__DRAGON_.ite33))
(define-fun .def_1600 () Bool (or .def_1595 .def_1599))
(define-fun .def_1594 () Bool (= call__DRAGON_.ite9 call__DRAGON_.ite4))
(define-fun .def_1596 () Bool (or .def_1594 .def_1595))
(define-fun .def_1590 () Bool (= call__DRAGON_.ite8 call__DRAGON_.ite9))
(define-fun .def_1592 () Bool (or .def_1590 param_e03))
(define-fun .def_1597 () Bool (and .def_1592 .def_1596))
(define-fun .def_1601 () Bool (and .def_1597 .def_1600))
(define-fun .def_1605 () Bool (and .def_1601 .def_1604))
(define-fun .def_1586 () Bool (= call__DRAGON_.ite31 call__DRAGON_.ite30))
(define-fun .def_1587 () Bool (or param_e02 .def_1586))
(define-fun .def_1582 () Bool (= call__DRAGON_.ite22 call__DRAGON_.ite31))
(define-fun .def_1583 () Bool (or .def_1555 .def_1582))
(define-fun .def_1577 () Bool (= call__DRAGON_.ite20 call__DRAGON_.ite21))
(define-fun .def_1578 () Bool (or param_e02 .def_1577))
(define-fun .def_1574 () Bool (= call__DRAGON_.ite12 call__DRAGON_.ite21))
(define-fun .def_1575 () Bool (or .def_1555 .def_1574))
(define-fun .def_1569 () Bool (= call__DRAGON_.ite10 call__DRAGON_.ite9))
(define-fun .def_1570 () Bool (or param_e02 .def_1569))
(define-fun .def_1565 () Bool (= call__DRAGON_.ite3 call__DRAGON_.ite10))
(define-fun .def_1566 () Bool (or .def_1555 .def_1565))
(define-fun .def_1562 () Bool (= call__DRAGON_.ite59 call__DRAGON_.ite60))
(define-fun .def_1563 () Bool (or param_e02 .def_1562))
(define-fun .def_1559 () Bool (= call__DRAGON_.ite60 call__DRAGON_.ite47))
(define-fun .def_1560 () Bool (or .def_1555 .def_1559))
(define-fun .def_1554 () Bool (= call__DRAGON_.ite32 call__DRAGON_.ite45))
(define-fun .def_1556 () Bool (or .def_1554 .def_1555))
(define-fun .def_1551 () Bool (= call__DRAGON_.ite45 call__DRAGON_.ite44))
(define-fun .def_1553 () Bool (or .def_1551 param_e02))
(define-fun .def_1557 () Bool (and .def_1553 .def_1556))
(define-fun .def_1561 () Bool (and .def_1557 .def_1560))
(define-fun .def_1564 () Bool (and .def_1561 .def_1563))
(define-fun .def_1567 () Bool (and .def_1564 .def_1566))
(define-fun .def_1571 () Bool (and .def_1567 .def_1570))
(define-fun .def_1576 () Bool (and .def_1571 .def_1575))
(define-fun .def_1579 () Bool (and .def_1576 .def_1578))
(define-fun .def_1584 () Bool (and .def_1579 .def_1583))
(define-fun .def_1588 () Bool (and .def_1584 .def_1587))
(define-fun .def_1545 () Bool (= call__DRAGON_.ite11 call__DRAGON_.ite10))
(define-fun .def_1546 () Bool (or param_e01 .def_1545))
(define-fun .def_1541 () Bool (= call__DRAGON_.ite2 call__DRAGON_.ite11))
(define-fun .def_1542 () Bool (or .def_1536 .def_1541))
(define-fun .def_1535 () Bool (= call__DRAGON_.ite61 call__DRAGON_.ite46))
(define-fun .def_1537 () Bool (or .def_1535 .def_1536))
(define-fun .def_1531 () Bool (= call__DRAGON_.ite61 call__DRAGON_.ite60))
(define-fun .def_1533 () Bool (or .def_1531 param_e01))
(define-fun .def_1538 () Bool (and .def_1533 .def_1537))
(define-fun .def_1543 () Bool (and .def_1538 .def_1542))
(define-fun .def_1547 () Bool (and .def_1543 .def_1546))
(define-fun .def_1525 () Bool (= call__DRAGON_.ite55 call__DRAGON_.ite52))
(define-fun .def_1526 () Bool (or .def_1298 .def_1525))
(define-fun .def_1522 () Bool (= call__DRAGON_.ite54 call__DRAGON_.ite55))
(define-fun .def_1523 () Bool (or param_e11 .def_1522))
(define-fun .def_1527 () Bool (and .def_1523 .def_1526))
(define-fun .def_1518 () Bool (= call__DRAGON_.ite56 call__DRAGON_.ite51))
(define-fun .def_1519 () Bool (or .def_1289 .def_1518))
(define-fun .def_1515 () Bool (= call__DRAGON_.ite56 call__DRAGON_.ite55))
(define-fun .def_1516 () Bool (or param_e10 .def_1515))
(define-fun .def_1520 () Bool (and .def_1516 .def_1519))
(define-fun .def_1510 () Bool (= call__DRAGON_.ite57 call__DRAGON_.ite50))
(define-fun .def_1511 () Bool (or .def_1283 .def_1510))
(define-fun .def_1507 () Bool (= call__DRAGON_.ite57 call__DRAGON_.ite56))
(define-fun .def_1508 () Bool (or param_e09 .def_1507))
(define-fun .def_1512 () Bool (and .def_1508 .def_1511))
(define-fun .def_1504 () Bool (= env call_Sofar.Sofar))
(define-fun .def_1501 () Bool (= erreur call__DRAGON_.erreur))
(define-fun .def_1497 () Bool (= invalid call__DRAGON_.invalid))
(define-fun .def_1493 () Bool (= dirty call__DRAGON_.dirty))
(define-fun .def_1489 () Bool (= shared_dirty call__DRAGON_.shared_dirty))
(define-fun .def_1485 () Bool (= shared call__DRAGON_.shared))
(define-fun .def_1481 () Bool (= exclusive call__DRAGON_.exclusive))
(define-fun .def_1475 () Bool (not env))
(define-fun .def_1476 () Bool (or flby .def_1475))
(define-fun .def_1477 () Bool (= _OK_ .def_1476))
(define-fun .def_1469 () Bool (= call__DRAGON_.ite39 call__DRAGON_.ite40))
(define-fun .def_1470 () Bool (or param_e08 .def_1469))
(define-fun .def_1466 () Bool (= call__DRAGON_.ite37 call__DRAGON_.ite40))
(define-fun .def_1467 () Bool (or .def_1443 .def_1466))
(define-fun .def_1463 () Bool (= call__DRAGON_.ite27 call__DRAGON_.ite28))
(define-fun .def_1464 () Bool (or param_e08 .def_1463))
(define-fun .def_1460 () Bool (= call__DRAGON_.ite25 call__DRAGON_.ite28))
(define-fun .def_1461 () Bool (or .def_1443 .def_1460))
(define-fun .def_1457 () Bool (= call__DRAGON_.ite17 call__DRAGON_.ite18))
(define-fun .def_1458 () Bool (or param_e08 .def_1457))
(define-fun .def_1454 () Bool (= call__DRAGON_.ite18 call__DRAGON_.ite15))
(define-fun .def_1455 () Bool (or .def_1443 .def_1454))
(define-fun .def_1450 () Bool (= call__DRAGON_.ite7 call__DRAGON_.ite8))
(define-fun .def_1451 () Bool (or param_e08 .def_1450))
(define-fun .def_1447 () Bool (= call__DRAGON_.ite5 call__DRAGON_.ite8))
(define-fun .def_1448 () Bool (or .def_1443 .def_1447))
(define-fun .def_1442 () Bool (= call__DRAGON_.ite58 call__DRAGON_.ite49))
(define-fun .def_1444 () Bool (or .def_1442 .def_1443))
(define-fun .def_1438 () Bool (= call__DRAGON_.ite58 call__DRAGON_.ite57))
(define-fun .def_1440 () Bool (or .def_1438 param_e08))
(define-fun .def_1445 () Bool (and .def_1440 .def_1444))
(define-fun .def_1449 () Bool (and .def_1445 .def_1448))
(define-fun .def_1452 () Bool (and .def_1449 .def_1451))
(define-fun .def_1456 () Bool (and .def_1452 .def_1455))
(define-fun .def_1459 () Bool (and .def_1456 .def_1458))
(define-fun .def_1462 () Bool (and .def_1459 .def_1461))
(define-fun .def_1465 () Bool (and .def_1462 .def_1464))
(define-fun .def_1468 () Bool (and .def_1465 .def_1467))
(define-fun .def_1471 () Bool (and .def_1468 .def_1470))
(define-fun .def_1433 () Bool (= call__DRAGON_.ite41 call__DRAGON_.ite40))
(define-fun .def_1434 () Bool (or param_e07 .def_1433))
(define-fun .def_1429 () Bool (= call__DRAGON_.ite41 call__DRAGON_.ite36))
(define-fun .def_1430 () Bool (or .def_1425 .def_1429))
(define-fun .def_1424 () Bool (= call__DRAGON_.ite59 call__DRAGON_.ite48))
(define-fun .def_1426 () Bool (or .def_1424 .def_1425))
(define-fun .def_1420 () Bool (= call__DRAGON_.ite58 call__DRAGON_.ite59))
(define-fun .def_1422 () Bool (or .def_1420 param_e07))
(define-fun .def_1427 () Bool (and .def_1422 .def_1426))
(define-fun .def_1431 () Bool (and .def_1427 .def_1430))
(define-fun .def_1435 () Bool (and .def_1431 .def_1434))
(define-fun .def_1414 () Bool (= call__DRAGON_.ite42 call__DRAGON_.ite41))
(define-fun .def_1415 () Bool (or param_e05 .def_1414))
(define-fun .def_1410 () Bool (= call__DRAGON_.ite35 call__DRAGON_.ite42))
(define-fun .def_1411 () Bool (or .def_1405 .def_1410))
(define-fun .def_1404 () Bool (= call__DRAGON_.ite13 call__DRAGON_.ite20))
(define-fun .def_1406 () Bool (or .def_1404 .def_1405))
(define-fun .def_1401 () Bool (= call__DRAGON_.ite19 call__DRAGON_.ite20))
(define-fun .def_1403 () Bool (or .def_1401 param_e05))
(define-fun .def_1407 () Bool (and .def_1403 .def_1406))
(define-fun .def_1412 () Bool (and .def_1407 .def_1411))
(define-fun .def_1416 () Bool (and .def_1412 .def_1415))
(define-fun .def_1397 () Bool (= call__DRAGON_.ite29 call__DRAGON_.ite28))
(define-fun .def_1398 () Bool (or param_e06 .def_1397))
(define-fun .def_1393 () Bool (= call__DRAGON_.ite24 call__DRAGON_.ite29))
(define-fun .def_1394 () Bool (or .def_1389 .def_1393))
(define-fun .def_1388 () Bool (= call__DRAGON_.ite19 call__DRAGON_.ite14))
(define-fun .def_1390 () Bool (or .def_1388 .def_1389))
(define-fun .def_1384 () Bool (= call__DRAGON_.ite19 call__DRAGON_.ite18))
(define-fun .def_1386 () Bool (or .def_1384 param_e06))
(define-fun .def_1391 () Bool (and .def_1386 .def_1390))
(define-fun .def_1395 () Bool (and .def_1391 .def_1394))
(define-fun .def_1399 () Bool (and .def_1395 .def_1398))
(define-fun .def_1417 () Bool (and .def_1399 .def_1416))
(define-fun .def_1436 () Bool (and .def_1417 .def_1435))
(define-fun .def_1472 () Bool (and .def_1436 .def_1471))
(define-fun .def_1478 () Bool (and .def_1472 .def_1477))
(define-fun .def_1482 () Bool (and .def_1478 .def_1481))
(define-fun .def_1486 () Bool (and .def_1482 .def_1485))
(define-fun .def_1490 () Bool (and .def_1486 .def_1489))
(define-fun .def_1494 () Bool (and .def_1490 .def_1493))
(define-fun .def_1498 () Bool (and .def_1494 .def_1497))
(define-fun .def_1502 () Bool (and .def_1498 .def_1501))
(define-fun .def_1505 () Bool (and .def_1502 .def_1504))
(define-fun .def_1513 () Bool (and .def_1505 .def_1512))
(define-fun .def_1521 () Bool (and .def_1513 .def_1520))
(define-fun .def_1528 () Bool (and .def_1521 .def_1527))
(define-fun .def_1548 () Bool (and .def_1528 .def_1547))
(define-fun .def_1589 () Bool (and .def_1548 .def_1588))
(define-fun .def_1606 () Bool (and .def_1589 .def_1605))
(define-fun .def_1621 () Bool (and .def_1606 .def_1620))
(define-fun .def_1631 () Bool (and .def_1621 .def_1630))
(define-fun .def_1633 () Bool (and .def_1631 .def_1632))
(define-fun .def_1635 () Bool (and .def_1633 .def_1634))
(define-fun .def_1637 () Bool (and .def_1635 .def_1636))
(define-fun .def_1639 () Bool (and .def_1637 .def_1638))
(define-fun .def_1641 () Bool (and .def_1639 .def_1640))
(define-fun .def_1643 () Bool (and .def_1641 .def_1642))
(define-fun .def_1745 () Bool (and .def_1643 .def_1744))
(define-fun .def_1747 () Bool (and .def_1745 .def_1746))
(define-fun .def_1375 () Bool (<= param_init_invalid 0))
(define-fun .def_1376 () Bool (not .def_1375))
(define-fun .def_1378 () Bool (and .def_1376 call_excludes12.excludes))
(define-fun .def_1380 () Bool (= .def_1378 call_Sofar.flby))
(define-fun .def_1373 () Bool (= call__DRAGON_.flby4 0))
(define-fun .def_1370 () Bool (= call__DRAGON_.flby3 0))
(define-fun .def_1367 () Bool (= call__DRAGON_.flby2 0))
(define-fun .def_1364 () Bool (= param_init_invalid call__DRAGON_.flby))
(define-fun .def_1358 () Bool (= call__DRAGON_.ite37 0))
(define-fun .def_1351 () Bool (not call__DRAGON_.g08))
(define-fun .def_1359 () Bool (or .def_1351 .def_1358))
(define-fun .def_1354 () Bool (= call__DRAGON_.ite5 0))
(define-fun .def_1355 () Bool (or .def_1351 .def_1354))
(define-fun .def_1349 () Bool (= call__DRAGON_.ite25 1))
(define-fun .def_1352 () Bool (or .def_1349 .def_1351))
(define-fun .def_1356 () Bool (and .def_1352 .def_1355))
(define-fun .def_1360 () Bool (and .def_1356 .def_1359))
(define-fun .def_1345 () Bool (= call__DRAGON_.ite24 1))
(define-fun .def_1343 () Bool (not call__DRAGON_.g06))
(define-fun .def_1346 () Bool (or .def_1343 .def_1345))
(define-fun .def_1339 () Bool (= call__DRAGON_.ite13 0))
(define-fun .def_1337 () Bool (not call__DRAGON_.g05))
(define-fun .def_1340 () Bool (or .def_1337 .def_1339))
(define-fun .def_1333 () Bool (= call__DRAGON_.ite23 0))
(define-fun .def_1331 () Bool (not call__DRAGON_.g04))
(define-fun .def_1334 () Bool (or .def_1331 .def_1333))
(define-fun .def_1326 () Bool (= call__DRAGON_.ite3 0))
(define-fun .def_1323 () Bool (not call__DRAGON_.g02))
(define-fun .def_1327 () Bool (or .def_1323 .def_1326))
(define-fun .def_1321 () Bool (= call__DRAGON_.ite32 0))
(define-fun .def_1324 () Bool (or .def_1321 .def_1323))
(define-fun .def_1328 () Bool (and .def_1324 .def_1327))
(define-fun .def_1318 () Bool (= call__DRAGON_.flby6 call__DRAGON_.mem_init))
(define-fun .def_1314 () Bool (= call__DRAGON_.flby5 0))
(define-fun .def_1309 () Bool (= call__DRAGON_.ite53 call__DRAGON_.ite54))
(define-fun .def_1310 () Bool (or .def_1305 .def_1309))
(define-fun .def_1303 () Bool (= call__DRAGON_.ite6 call__DRAGON_.ite7))
(define-fun .def_1306 () Bool (or .def_1303 .def_1305))
(define-fun .def_1311 () Bool (and .def_1306 .def_1310))
(define-fun .def_1296 () Bool (= call__DRAGON_.ite26 call__DRAGON_.ite27))
(define-fun .def_1299 () Bool (or .def_1296 .def_1298))
(define-fun .def_1287 () Bool (= call__DRAGON_.ite16 call__DRAGON_.ite17))
(define-fun .def_1290 () Bool (or .def_1287 .def_1289))
(define-fun .def_1281 () Bool (= call__DRAGON_.ite38 call__DRAGON_.ite39))
(define-fun .def_1284 () Bool (or .def_1281 .def_1283))
(define-fun .def_1291 () Bool (and .def_1284 .def_1290))
(define-fun .def_1293 () Bool (and .def_1291 flby))
(define-fun .def_1300 () Bool (and .def_1293 .def_1299))
(define-fun .def_1312 () Bool (and .def_1300 .def_1311))
(define-fun .def_1315 () Bool (and .def_1312 .def_1314))
(define-fun .def_1319 () Bool (and .def_1315 .def_1318))
(define-fun .def_1329 () Bool (and .def_1319 .def_1328))
(define-fun .def_1335 () Bool (and .def_1329 .def_1334))
(define-fun .def_1341 () Bool (and .def_1335 .def_1340))
(define-fun .def_1347 () Bool (and .def_1341 .def_1346))
(define-fun .def_1361 () Bool (and .def_1347 .def_1360))
(define-fun .def_1365 () Bool (and .def_1361 .def_1364))
(define-fun .def_1368 () Bool (and .def_1365 .def_1367))
(define-fun .def_1371 () Bool (and .def_1368 .def_1370))
(define-fun .def_1374 () Bool (and .def_1371 .def_1373))
(define-fun .def_1381 () Bool (and .def_1374 .def_1380))
(define-fun .def_1748 () Bool (and .def_1381 .def_1747))
(assert .def_1748)
